
Gurobi 11.0.3 (linux64) logging started Sat Nov 23 05:44:53 2024

Set parameter LogFile to value "/home/yihong/Coding/OR_SUC/SUC_results_bigM100000_thread4/case24_ieee_rts_theta0.5_epsilon0.05_gurobi_seed370000_num_gen100_N_WDR50_load_scaling_factor1_proposed_T24quadra_cost.txt"
Set parameter TimeLimit to value 3600
Gurobi Optimizer version 11.0.3 build v11.0.3rc0 (linux64 - "Ubuntu 20.04.6 LTS")

CPU model: AMD EPYC 7532 32-Core Processor, instruction set [SSE2|AVX|AVX2]
Thread count: 64 physical cores, 128 logical processors, using up to 4 threads

Optimize a model with 51892 rows, 29811 columns and 708694 nonzeros
Model fingerprint: 0xcbeb4a1a
Model has 2400 quadratic constraints
Variable types: 27411 continuous, 2400 integer (2400 binary)
Coefficient statistics:
  Matrix range     [3e-04, 2e+03]
  QMatrix range    [2e-03, 8e-03]
  QLMatrix range   [3e-01, 6e+01]
  Objective range  [1e+00, 1e+00]
  Bounds range     [1e+00, 1e+00]
  RHS range        [1e+00, 9e+03]
Presolve removed 42033 rows and 12890 columns
Presolve time: 0.23s
Presolved: 9859 rows, 16921 columns, 62639 nonzeros
Presolved model has 2400 quadratic constraint(s)
Variable types: 14521 continuous, 2400 integer (2400 binary)

Root relaxation: objective 4.488196e+04, 7611 iterations, 0.19 seconds (0.27 work units)

    Nodes    |    Current Node    |     Objective Bounds      |     Work
 Expl Unexpl |  Obj  Depth IntInf | Incumbent    BestBd   Gap | It/Node Time

H    0     0                    660338.85526 44881.9641  93.2%     -    0s
*    0     0               0    660338.85526 44881.9641  93.2%     -    0s
     0     0 347807.552    0  772 660338.855 347807.552  47.3%     -    1s
     0     0 619342.882    0  385 660338.855 619342.882  6.21%     -    1s
     0     0 619413.205    0   51 660338.855 619413.205  6.20%     -    1s
     0     0 619532.777    0   56 660338.855 619532.777  6.18%     -    1s
     0     0 619533.374    0   56 660338.855 619533.374  6.18%     -    1s
     0     0 619533.822    0   55 660338.855 619533.822  6.18%     -    1s
     0     0 619535.132    0   55 660338.855 619535.132  6.18%     -    1s
     0     2 619535.715    0   55 660338.855 619535.715  6.18%     -    3s
H  165   191                    619660.08365 619539.452  0.02%  24.0    5s
*  165   191              45    619660.08365 619539.452  0.02%  24.0    5s

Cutting planes:
  Gomory: 40
  Lift-and-project: 11
  Implied bound: 206
  MIR: 27
  Flow cover: 107
  RLT: 420
  Relax-and-lift: 94

Explored 208 nodes (25495 simplex iterations) in 6.03 seconds (7.37 work units)
Thread count was 4 (of 128 available processors)

Solution count 3: 619660 619660 660339 

Optimal solution found (tolerance 1.00e-03)
Warning: max constraint violation (2.7140e-07) exceeds tolerance
Best objective 6.196600836543e+05, best bound 6.195394522194e+05, gap 0.0195%
